RT is False
Default write of storage_offers_DA.csv just to have a file (but constraint should be inactive)
Reading model...
...model read.
creating competitive generators file...
...competitive generators recorded.
Loading data...
.. day-ahead data with real-time VRE data read.
Compiling instance...
...instance created.
Creating Offer Mitigation (model will solve as dispatch if TRUE)...
Solving...

Welcome to IBM(R) ILOG(R) CPLEX(R) Interactive Optimizer 12.8.0.0
  with Simplex, Mixed Integer & Barrier Optimizers
5725-A06 5725-A29 5724-Y48 5724-Y49 5724-Y54 5724-Y55 5655-Y21
Copyright IBM Corp. 1988, 2017.  All Rights Reserved.

Type 'help' for a list of available commands.
Type 'help' followed by a command name for more
information on commands.

CPLEX> Logfile 'cplex.log' closed.
Logfile 'C:\Users\llavi\Desktop\test919\logs\tmpt99jx25n.cplex.log' open.
CPLEX> New value for parallel optimization mode: -1
CPLEX> New value for mixed integer optimality gap tolerance: 0.01
CPLEX> New value for integrality tolerance: 1e-09
CPLEX> New value for feasibility tolerance: 0.01
CPLEX> New value for deterministic time limit in ticks: 75000
CPLEX> Problem 'C:\Users\llavi\Desktop\test919\logs\tmpjgpdsk3t.pyomo.lp' read.
Read time = 0.06 sec. (3.03 ticks)
CPLEX> Problem name         : C:\Users\llavi\Desktop\test919\logs\tmpjgpdsk3t.pyomo.lp
Objective sense      : Minimize
Variables            :   26465  [Nneg: 1,  Box: 22000,  Free: 4464]
Objective nonzeros   :    2496
Linear constraints   :   27515  [Less: 14006,  Greater: 4416,  Equal: 9093]
  Nonzeros           :   89171
  RHS nonzeros       :   12269

Variables            : Min LB: -5000.000        Max UB: 1000000.       
Objective nonzeros   : Min   : 15.73158         Max   : 124.0997       
Linear constraints   :
  Nonzeros           : Min   : 0.8500000        Max   : 3000.000       
  RHS nonzeros       : Min   : 0.7833333        Max   : 5000.000       
CPLEX> CPXPARAM_Simplex_Tolerances_Feasibility          0.01
CPXPARAM_Parallel                                -1
CPXPARAM_DetTimeLimit                            75000
CPXPARAM_MIP_Tolerances_MIPGap                   0.01
CPXPARAM_MIP_Tolerances_Integrality              1.0000000000000001e-09
Parallel mode: opportunistic, using up to 4 threads for concurrent optimization.
Tried aggregator 1 time.
LP Presolve eliminated 21401 rows and 15895 columns.
Aggregator did 722 substitutions.
Reduced LP has 5392 rows, 9848 columns, and 31764 nonzeros.
Presolve time = 0.05 sec. (22.46 ticks)

Iteration log . . .
Iteration:     1   Dual objective     =             0.000000
Perturbation started.
Iteration:   101   Dual objective     =             0.000000
Iteration:   359   Dual objective     =             1.352479
Iteration:   630   Dual objective     =             1.976487
Iteration:   962   Dual objective     =             2.155823
Iteration:  1157   Dual objective     =             2.277751
Iteration:  1505   Dual objective     =             2.336749
Iteration:  1810   Dual objective     =             2.369323
Iteration:  2097   Dual objective     =        357708.365575
Iteration:  2388   Dual objective     =        495655.916678
Iteration:  2717   Dual objective     =        613019.716005
Iteration:  2982   Dual objective     =        762177.939515
Iteration:  3354   Dual objective     =        764369.105042
Iteration:  3688   Dual objective     =        765974.973063
Iteration:  4103   Dual objective     =        766104.475824
Removing perturbation.

Dual simplex solved model.


Dual simplex - Optimal:  Objective =  7.6640619202e+05
Solution time =    0.16 sec.  Iterations = 4528 (0)
Deterministic time = 95.94 ticks  (615.01 ticks/sec)

CPLEX> Solution written to file 'C:\Users\llavi\Desktop\test919\logs\tmpz1zk6gi8.cplex.sol'.
CPLEX> Exporting results... 
...storage offer mitigation file created
Converting model to MPEC...
...converted
NOTE: initial MIP solve with only storage competitive to get feasible solution
Solving...

Welcome to IBM(R) ILOG(R) CPLEX(R) Interactive Optimizer 12.8.0.0
  with Simplex, Mixed Integer & Barrier Optimizers
5725-A06 5725-A29 5724-Y48 5724-Y49 5724-Y54 5724-Y55 5655-Y21
Copyright IBM Corp. 1988, 2017.  All Rights Reserved.

Type 'help' for a list of available commands.
Type 'help' followed by a command name for more
information on commands.

CPLEX> Logfile 'cplex.log' closed.
Logfile 'C:\Users\llavi\Desktop\test919\logs\tmpblh4_96e.cplex.log' open.
CPLEX> New value for parallel optimization mode: -1
CPLEX> New value for mixed integer optimality gap tolerance: 0.01
CPLEX> New value for integrality tolerance: 1e-09
CPLEX> New value for feasibility tolerance: 0.01
CPLEX> New value for deterministic time limit in ticks: 75000
CPLEX> Problem 'C:\Users\llavi\Desktop\test919\logs\tmpy61r2ow1.pyomo.lp' read.
Read time = 0.25 sec. (13.96 ticks)
CPLEX> Problem name         : C:\Users\llavi\Desktop\test919\logs\tmpy61r2ow1.pyomo.lp
Objective sense      : Maximize
Variables            :   53805  [Nneg: 1,  Box: 22000,  Free: 4464,
                                 Binary: 27340]
Objective nonzeros   :    9076
Linear constraints   :  123205  [Less: 41346,  Greater: 59096,  Equal: 22763]
  Nonzeros           :  291703
  RHS nonzeros       :   67487

Variables            : Min LB: -5000.000        Max UB: 1000000.       
Objective nonzeros   : Min   : 0.7833333        Max   : 2500.000       
Linear constraints   :
  Nonzeros           : Min   : 0.7833333        Max   : 1000000.       
  RHS nonzeros       : Min   : 0.7833333        Max   : 1000000.       
CPLEX> CPXPARAM_Simplex_Tolerances_Feasibility          0.01
CPXPARAM_Parallel                                -1
CPXPARAM_DetTimeLimit                            75000
CPXPARAM_MIP_Tolerances_MIPGap                   0.01
CPXPARAM_MIP_Tolerances_Integrality              1.0000000000000001e-09
Tried aggregator 3 times.
MIP Presolve eliminated 88823 rows and 19171 columns.
MIP Presolve added 3342 rows and 0 columns.
MIP Presolve modified 23820 coefficients.
Aggregator did 12924 substitutions.
Reduced MIP has 24800 rows, 21154 columns, and 70702 nonzeros.
Reduced MIP has 8364 binaries, 0 generals, 0 SOSs, and 0 indicators.
Presolve time = 0.28 sec. (167.90 ticks)
Probing fixed 406 vars, tightened 2879 bounds.
Probing time = 3.16 sec. (903.50 ticks)
Tried aggregator 2 times.
MIP Presolve eliminated 923 rows and 812 columns.
MIP Presolve modified 2232 coefficients.
Aggregator did 38 substitutions.
Reduced MIP has 23839 rows, 20304 columns, and 67930 nonzeros.
Reduced MIP has 7958 binaries, 0 generals, 0 SOSs, and 0 indicators.
Presolve time = 0.11 sec. (53.93 ticks)
Probing time = 0.06 sec. (15.94 ticks)
Clique table members: 6349.
MIP emphasis: balance optimality and feasibility.
MIP search method: dynamic search.
Parallel mode: opportunistic, using up to 4 threads.
Root relaxation solution time = 0.64 sec. (624.15 ticks)

        Nodes                                         Cuts/
   Node  Left     Objective  IInf  Best Integer    Best Bound    ItCnt     Gap

      0     0       -3.9366  1000                     -3.9366     4400         
      0     0       -3.9366   711                   Cuts: 955     4825         
      0     0       -4.0781   545                   Cuts: 755     5121         
      0     0       -4.2196   446                   Cuts: 441     5258         
      0     0       -4.2196   408                   Cuts: 138     5317         
      0     0       -4.2196   394                   Cuts: 105     5339         
      0     0       -4.2196   392                    Cuts: 49     5346         
      0     3      -13.9610    24                    -12.7839     5349         
Elapsed time = 17.08 sec. (6154.76 ticks, tree = 0.02 MB, solutions = 0)
    106    59      -39.5088     2                    -12.7839     8965         
    156    89      -21.5492     5                    -12.7839     9058         
    191   116     -153.0563     5                    -12.7839     9234         
    224   135    infeasible                          -12.7839     9372         
    258   158   -32984.4003    14                    -12.7839     9665         
    285   180     -803.0262     1                    -12.7839    10412         
    310   185      -21.9229     2                    -12.7839    10742         
    348   187      -21.9229     2                    -12.7839    10747         
    379   197      -21.9229     1                    -13.2395    11816         
    429   231      -21.9229     2                    -13.2395    12207         
Elapsed time = 21.11 sec. (9338.65 ticks, tree = 5.07 MB, solutions = 0)
    466   238    infeasible                          -13.2395    12240         
    496   247    infeasible                          -13.2395    12270         
    535   264      -53.1647     3                    -13.2395    12491         
    655   311    infeasible                          -13.2395    12714         
    827   424     -391.7537     1                    -13.2395    13478         
*   958   475      integral     0     -690.8067      -13.2395    14072   98.08%
   1026   494   -44932.4449    30     -690.8067      -13.9610    14281   97.98%
   1143   569     -885.7322     3     -690.8067      -13.9610    14722   97.98%
   1275   566     -356.7779     3     -690.8067      -13.9610    15522   97.98%
   1393   654        cutoff           -690.8067      -13.9610    15871   97.98%
   1426   508      -22.3208     1     -690.8067      -13.9610    15408   97.98%
Elapsed time = 35.06 sec. (19026.44 ticks, tree = 10.05 MB, solutions = 1)
   1468   658      -29.4238     1     -690.8067      -13.9610    15898   97.98%
   1507   672      -29.4238     1     -690.8067      -13.9610    16008   97.98%
   1534   661      -21.9229     1     -690.8067      -13.9610    15948   97.98%
   1560   675      -29.4238     1     -690.8067      -13.9610    16021   97.98%
   1582   674      -22.3208     1     -690.8067      -13.9610    16019   97.98%
   1605   673      -21.9229     1     -690.8067      -13.9610    16011   97.98%
   1628   676        cutoff           -690.8067      -13.9610    16041   97.98%
   1654   686        cutoff           -690.8067      -13.9610    16088   97.98%
   1682   687      -47.0152     1     -690.8067      -13.9610    16091   97.98%
   1727   717      -47.0152     1     -690.8067      -13.9610    16341   97.98%
Elapsed time = 46.94 sec. (29610.67 ticks, tree = 9.82 MB, solutions = 1)
   1749   721        cutoff           -690.8067      -13.9610    16363   97.98%
   1804   727      -22.3208     1     -690.8067      -13.9610    16474   97.98%
   1826   726        cutoff           -690.8067      -13.9610    16480   97.98%
   1878   739        cutoff           -690.8067      -13.9610    16548   97.98%
   1957   741      -22.3208     3     -690.8067      -13.9610    16553   97.98%
   2012   764        cutoff           -690.8067      -14.2440    16695   97.94%
   2055   789      -21.9229     1     -690.8067      -14.2440    16797   97.94%
   2084   838      -21.9229     2     -690.8067      -14.2440    17020   97.94%
   2116   870      -22.3208     1     -690.8067      -14.2440    17139   97.94%
   2137   870        cutoff           -690.8067      -14.2440    17143   97.94%
Elapsed time = 58.74 sec. (39531.67 ticks, tree = 12.12 MB, solutions = 1)
   2165   870        cutoff           -690.8067      -14.2440    17146   97.94%
   2188   868      -21.9229     3     -690.8067      -14.2440    17134   97.94%
   2210   873      -22.3208     1     -690.8067      -14.2440    17157   97.94%
   2234   893      -22.2483     1     -690.8067      -14.2440    17213   97.94%
   2257   905      -22.2483     1     -690.8067      -14.2440    17278   97.94%
   2288   902        cutoff           -690.8067      -14.2440    17290   97.94%
   2348   893      -22.3208     6     -690.8067      -14.2440    17238   97.94%
   2374   964      -22.3208     1     -690.8067      -14.2440    17521   97.94%
   2433  1006     -534.0739     2     -690.8067      -14.2440    17690   97.94%
   2488  1034      -43.9351     2     -690.8067      -14.2440    17848   97.94%
Elapsed time = 69.74 sec. (49308.19 ticks, tree = 13.12 MB, solutions = 1)
   2596  1109      -21.5484     8     -690.8067      -14.2440    18062   97.94%
   2720  1219     -600.1561     4     -690.8067      -14.2440    18446   97.94%
   2779  1046      -22.3208     2     -690.8067      -14.2440    17852   97.94%
   2809  1048      -22.3208     1     -690.8067      -14.2440    17856   97.94%
   2853  1243     -104.4316     3     -690.8067      -14.2440    18573   97.94%
   2929  1240      -24.5044     2     -690.8067      -14.2440    18524   97.94%
   3018  1303     -171.6452     3     -690.8067      -14.2440    18698   97.94%
   3127  1413      -30.1114     3     -690.8067      -14.2440    19107   97.94%
   3251  1499      -92.1529     5     -690.8067      -14.2440    19427   97.94%
   3338  1445      -22.3208     2     -690.8067      -14.2440    19188   97.94%
Elapsed time = 83.50 sec. (58908.34 ticks, tree = 17.14 MB, solutions = 1)
   3357  1457      -22.3208     1     -690.8067      -14.2440    19246   97.94%
   3435  1508      -14.3589     2     -690.8067      -14.2440    19408   97.94%
   3476  1458      -22.3208     1     -690.8067      -14.2440    19252   97.94%
   3525  1512      -22.3208     1     -690.8067      -14.2440    19447   97.94%
   3549  1637        cutoff           -690.8067      -14.2440    20009   97.94%
   3557  1451      -21.9229     1     -690.8067      -14.2440    19222   97.94%
   3564  1640      -22.3208     1     -690.8067      -14.2440    20016   97.94%
   3575  1640      -22.3208     1     -690.8067      -14.2440    20019   97.94%
   3585  1637      -21.9229     1     -690.8067      -14.2440    20001   97.94%

GUB cover cuts applied:  4
Clique cuts applied:  2
Cover cuts applied:  20
Implied bound cuts applied:  12
Flow cuts applied:  285
Mixed integer rounding cuts applied:  28
Gomory fractional cuts applied:  69

Root node processing (before b&c):
  Real time             =   16.83 sec. (6137.67 ticks)
Parallel b&c, 4 threads:
  Real time             =   85.48 sec. (68896.24 ticks)
  Sync time (average)   =    0.12 sec.
  Wait time (average)   =    0.02 sec.
                          ------------
Total (root+branch&cut) =  102.31 sec. (75033.90 ticks)

Solution pool: 1 solution saved.

MIP - Deterministic time limit exceeded, integer feasible:  Objective = -6.9080667896e+02
Current MIP best bound = -1.4243973600e+01 (gap = 676.563, 97.94%)
Solution time =  102.31 sec.  Iterations = 27130  Nodes = 3586 (1721)
Deterministic time = 75034.06 ticks  (733.38 ticks/sec)

CPLEX> Incumbent solution written to file 'C:\Users\llavi\Desktop\test919\logs\tmph23djseh.cplex.sol'.
CPLEX> NOTE: no warmstart specified for MIP iteration, default behavior is true
NOTE: resolving with all competitive generators using storage-only solution to warmstart
Solving...

Welcome to IBM(R) ILOG(R) CPLEX(R) Interactive Optimizer 12.8.0.0
  with Simplex, Mixed Integer & Barrier Optimizers
5725-A06 5725-A29 5724-Y48 5724-Y49 5724-Y54 5724-Y55 5655-Y21
Copyright IBM Corp. 1988, 2017.  All Rights Reserved.

Type 'help' for a list of available commands.
Type 'help' followed by a command name for more
information on commands.

CPLEX> Logfile 'cplex.log' closed.
Logfile 'C:\Users\llavi\Desktop\test919\logs\tmptosb30aw.cplex.log' open.
CPLEX> New value for parallel optimization mode: -1
CPLEX> New value for mixed integer optimality gap tolerance: 0.01
CPLEX> New value for integrality tolerance: 1e-09
CPLEX> New value for feasibility tolerance: 0.01
CPLEX> New value for deterministic time limit in ticks: 75000
CPLEX> Problem 'C:\Users\llavi\Desktop\test919\logs\tmpb5jxyo9g.pyomo.lp' read.
Read time = 0.28 sec. (13.98 ticks)
CPLEX> MIP start file 'C:\Users\llavi\Desktop\test919\logs\tmp5pi0gdta.cplex.mst' read.
CPLEX> Problem name         : C:\Users\llavi\Desktop\test919\logs\tmpb5jxyo9g.pyomo.lp
Objective sense      : Maximize
Variables            :   54525  [Nneg: 1,  Box: 22720,  Free: 4464,
                                 Binary: 27340]
Objective nonzeros   :    9772
Linear constraints   :  123205  [Less: 41346,  Greater: 59096,  Equal: 22763]
  Nonzeros           :  291703
  RHS nonzeros       :   67487

Variables            : Min LB: -5000.000        Max UB: 1000000.       
Objective nonzeros   : Min   : 0.7833333        Max   : 2500.000       
Linear constraints   :
  Nonzeros           : Min   : 0.7833333        Max   : 1000000.       
  RHS nonzeros       : Min   : 0.7833333        Max   : 1000000.       
CPLEX> CPXPARAM_Simplex_Tolerances_Feasibility          0.01
CPXPARAM_Parallel                                -1
CPXPARAM_DetTimeLimit                            75000
CPXPARAM_MIP_Tolerances_MIPGap                   0.01
CPXPARAM_MIP_Tolerances_Integrality              1.0000000000000001e-09
Warning:  No solution found from 1 MIP starts.
Retaining values of one MIP start for possible repair.
Tried aggregator 3 times.
MIP Presolve eliminated 88823 rows and 19891 columns.
MIP Presolve added 3342 rows and 0 columns.
MIP Presolve modified 23820 coefficients.
Aggregator did 12924 substitutions.
Reduced MIP has 24800 rows, 21154 columns, and 70702 nonzeros.
Reduced MIP has 8364 binaries, 0 generals, 0 SOSs, and 0 indicators.
Presolve time = 0.30 sec. (168.27 ticks)
Probing fixed 406 vars, tightened 2879 bounds.
Probing time = 3.28 sec. (903.50 ticks)
Tried aggregator 2 times.
MIP Presolve eliminated 923 rows and 812 columns.
MIP Presolve modified 2232 coefficients.
Aggregator did 38 substitutions.
Reduced MIP has 23839 rows, 20304 columns, and 67930 nonzeros.
Reduced MIP has 7958 binaries, 0 generals, 0 SOSs, and 0 indicators.
Presolve time = 0.14 sec. (53.93 ticks)
Probing time = 0.06 sec. (15.94 ticks)
Clique table members: 6349.
MIP emphasis: balance optimality and feasibility.
MIP search method: dynamic search.
Parallel mode: opportunistic, using up to 4 threads.
Root relaxation solution time = 0.77 sec. (638.05 ticks)

        Nodes                                         Cuts/
   Node  Left     Objective  IInf  Best Integer    Best Bound    ItCnt     Gap

      0     0     9204.9817  1036                   9204.9817     4457         
      0     0     9204.9817   720                   Cuts: 966     4961         
      0     0     9203.8503   485                   Cuts: 788     5280         
      0     0     9203.0972   394                   Cuts: 356     5396         
      0     0     9203.0972   382                    Cuts: 67     5410         
      0     0     9203.0972   376                    Cuts: 50     5418         
      0     0     9203.0972   373                    Cuts: 40     5424         
Repair heuristic found nothing.
      0     2     9203.0859    31                   9203.0859     5424         
Elapsed time = 27.36 sec. (10049.00 ticks, tree = 0.05 MB, solutions = 0)
     93    38     9193.4803    19                   9201.4625     5504         
    143   135     9189.1823    19                   9201.4625     6037         
    221   180   -22133.7103     6                   9201.4625     6477         
    301   280     9199.9232    17                   9201.4625     7689         
*   370+  332                       -55414.1653     9201.4625           116.60%
    454   360     9186.7510    18   -55414.1653     9201.4625     8686  116.60%
    500   438   -22260.8284    15   -55414.1653     9201.4625     9340  116.60%
    577   518   -53487.2856    18   -55414.1653     9201.4625    10733  116.60%
    676   536   -21914.5646    22   -55414.1653     9201.4625    10935  116.60%
   1082   930   -22024.3629     1   -55414.1653     9201.4625    12745  116.60%
Elapsed time = 32.41 sec. (13150.16 ticks, tree = 4.61 MB, solutions = 2)
*  1086   928      integral     0   -22024.3629     9201.4625    12746  141.78%
   1353   612     9195.8194     4     7032.4179     9201.4625    13361   30.84%
*  1408   639      integral     0     9197.1541     9201.4625    13479    0.05%

Clique cuts applied:  33
Cover cuts applied:  2
Implied bound cuts applied:  86
Flow cuts applied:  444
Mixed integer rounding cuts applied:  31
Gomory fractional cuts applied:  34

Root node processing (before b&c):
  Real time             =   27.02 sec. (9985.09 ticks)
Parallel b&c, 4 threads:
  Real time             =    7.48 sec. (5013.31 ticks)
  Sync time (average)   =    0.11 sec.
  Wait time (average)   =    0.01 sec.
                          ------------
Total (root+branch&cut) =   34.50 sec. (14998.40 ticks)

Solution pool: 4 solutions saved.

MIP - Integer optimal, tolerance (0.01/1e-06):  Objective =  9.1971540668e+03
Current MIP best bound =  9.2014625374e+03 (gap = 4.30847, 0.05%)
Solution time =   34.50 sec.  Iterations = 13567  Nodes = 1423 (192)
Deterministic time = 14998.56 ticks  (434.74 ticks/sec)

CPLEX> Incumbent solution written to file 'C:\Users\llavi\Desktop\test919\logs\tmpu3o7kh_s.cplex.sol'.
CPLEX> Exporting results... 
